
Gurobi 9.1.1 (linux64, Python) logging started Tue Dec 21 21:21:40 2021

Using license file /cluster/apps/nss/gurobi/9.1.1/x86_64/gurobi.lic
Set parameter TokenServer to value lic-gurobi.ethz.ch
Set parameter LogFile to value gurobi.log

Gurobi 9.1.1 (linux64, Python) logging started Thu Dec 23 15:33:37 2021

Using license file /cluster/apps/nss/gurobi/9.1.1/x86_64/gurobi.lic
Set parameter TokenServer to value lic-gurobi.ethz.ch
Set parameter LogFile to value gurobi.log

Gurobi 9.1.1 (linux64, Python) logging started Thu Dec 23 15:34:34 2021

Using license file /cluster/apps/nss/gurobi/9.1.1/x86_64/gurobi.lic
Set parameter TokenServer to value lic-gurobi.ethz.ch
Set parameter LogFile to value gurobi.log
